--------------------------------------------------
s SATISFIABLE
benchmarks_SAT/INST_9x9/0/inst9x9_0_0.cnf : 12 ms.
--------------------------------------------------
s SATISFIABLE
benchmarks_SAT/INST_9x9/0/inst9x9_0_10.cnf : 8 ms.
--------------------------------------------------
s SATISFIABLE
benchmarks_SAT/INST_9x9/0/inst9x9_0_11.cnf : 11 ms.
--------------------------------------------------
s SATISFIABLE
benchmarks_SAT/INST_9x9/0/inst9x9_0_12.cnf : 7 ms.
--------------------------------------------------
s SATISFIABLE
benchmarks_SAT/INST_9x9/0/inst9x9_0_13.cnf : 8 ms.
--------------------------------------------------
s SATISFIABLE
benchmarks_SAT/INST_9x9/0/inst9x9_0_14.cnf : 8 ms.
--------------------------------------------------
s SATISFIABLE
benchmarks_SAT/INST_9x9/0/inst9x9_0_15.cnf : 8 ms.
--------------------------------------------------
s SATISFIABLE
benchmarks_SAT/INST_9x9/0/inst9x9_0_16.cnf : 7 ms.
--------------------------------------------------
s SATISFIABLE
benchmarks_SAT/INST_9x9/0/inst9x9_0_17.cnf : 7 ms.
--------------------------------------------------
s SATISFIABLE
benchmarks_SAT/INST_9x9/0/inst9x9_0_18.cnf : 8 ms.
--------------------------------------------------
s SATISFIABLE
benchmarks_SAT/INST_9x9/0/inst9x9_0_19.cnf : 7 ms.
--------------------------------------------------
s SATISFIABLE
benchmarks_SAT/INST_9x9/0/inst9x9_0_1.cnf : 7 ms.
--------------------------------------------------
s SATISFIABLE
benchmarks_SAT/INST_9x9/0/inst9x9_0_20.cnf : 7 ms.
--------------------------------------------------
s SATISFIABLE
benchmarks_SAT/INST_9x9/0/inst9x9_0_21.cnf : 7 ms.
--------------------------------------------------
s SATISFIABLE
benchmarks_SAT/INST_9x9/0/inst9x9_0_22.cnf : 7 ms.
--------------------------------------------------
s SATISFIABLE
benchmarks_SAT/INST_9x9/0/inst9x9_0_23.cnf : 7 ms.
--------------------------------------------------
s SATISFIABLE
benchmarks_SAT/INST_9x9/0/inst9x9_0_24.cnf : 8 ms.
--------------------------------------------------
s SATISFIABLE
benchmarks_SAT/INST_9x9/0/inst9x9_0_25.cnf : 7 ms.
--------------------------------------------------
s SATISFIABLE
benchmarks_SAT/INST_9x9/0/inst9x9_0_26.cnf : 8 ms.
--------------------------------------------------
s SATISFIABLE
benchmarks_SAT/INST_9x9/0/inst9x9_0_27.cnf : 9 ms.
--------------------------------------------------
s SATISFIABLE
benchmarks_SAT/INST_9x9/0/inst9x9_0_28.cnf : 8 ms.
--------------------------------------------------
s SATISFIABLE
benchmarks_SAT/INST_9x9/0/inst9x9_0_29.cnf : 7 ms.
--------------------------------------------------
s SATISFIABLE
benchmarks_SAT/INST_9x9/0/inst9x9_0_2.cnf : 8 ms.
--------------------------------------------------
s SATISFIABLE
benchmarks_SAT/INST_9x9/0/inst9x9_0_30.cnf : 8 ms.
--------------------------------------------------
s SATISFIABLE
benchmarks_SAT/INST_9x9/0/inst9x9_0_31.cnf : 8 ms.
--------------------------------------------------
s SATISFIABLE
benchmarks_SAT/INST_9x9/0/inst9x9_0_32.cnf : 7 ms.
--------------------------------------------------
s SATISFIABLE
benchmarks_SAT/INST_9x9/0/inst9x9_0_33.cnf : 8 ms.
--------------------------------------------------
s SATISFIABLE
benchmarks_SAT/INST_9x9/0/inst9x9_0_34.cnf : 7 ms.
--------------------------------------------------
s SATISFIABLE
benchmarks_SAT/INST_9x9/0/inst9x9_0_35.cnf : 8 ms.
--------------------------------------------------
s SATISFIABLE
benchmarks_SAT/INST_9x9/0/inst9x9_0_36.cnf : 8 ms.
--------------------------------------------------
s SATISFIABLE
benchmarks_SAT/INST_9x9/0/inst9x9_0_37.cnf : 7 ms.
--------------------------------------------------
s SATISFIABLE
benchmarks_SAT/INST_9x9/0/inst9x9_0_38.cnf : 7 ms.
--------------------------------------------------
s SATISFIABLE
benchmarks_SAT/INST_9x9/0/inst9x9_0_39.cnf : 7 ms.
--------------------------------------------------
s SATISFIABLE
benchmarks_SAT/INST_9x9/0/inst9x9_0_3.cnf : 8 ms.
--------------------------------------------------
s SATISFIABLE
benchmarks_SAT/INST_9x9/0/inst9x9_0_40.cnf : 8 ms.
--------------------------------------------------
s SATISFIABLE
benchmarks_SAT/INST_9x9/0/inst9x9_0_41.cnf : 7 ms.
--------------------------------------------------
s SATISFIABLE
benchmarks_SAT/INST_9x9/0/inst9x9_0_42.cnf : 7 ms.
--------------------------------------------------
s SATISFIABLE
benchmarks_SAT/INST_9x9/0/inst9x9_0_43.cnf : 8 ms.
--------------------------------------------------
s SATISFIABLE
benchmarks_SAT/INST_9x9/0/inst9x9_0_44.cnf : 6 ms.
--------------------------------------------------
s SATISFIABLE
benchmarks_SAT/INST_9x9/0/inst9x9_0_45.cnf : 7 ms.
--------------------------------------------------
s SATISFIABLE
benchmarks_SAT/INST_9x9/0/inst9x9_0_46.cnf : 8 ms.
--------------------------------------------------
s SATISFIABLE
benchmarks_SAT/INST_9x9/0/inst9x9_0_47.cnf : 7 ms.
--------------------------------------------------
s SATISFIABLE
benchmarks_SAT/INST_9x9/0/inst9x9_0_48.cnf : 7 ms.
--------------------------------------------------
s SATISFIABLE
benchmarks_SAT/INST_9x9/0/inst9x9_0_49.cnf : 8 ms.
--------------------------------------------------
s SATISFIABLE
benchmarks_SAT/INST_9x9/0/inst9x9_0_4.cnf : 8 ms.
--------------------------------------------------
s SATISFIABLE
benchmarks_SAT/INST_9x9/0/inst9x9_0_50.cnf : 9 ms.
--------------------------------------------------
s SATISFIABLE
benchmarks_SAT/INST_9x9/0/inst9x9_0_51.cnf : 8 ms.
--------------------------------------------------
s SATISFIABLE
benchmarks_SAT/INST_9x9/0/inst9x9_0_52.cnf : 8 ms.
--------------------------------------------------
s SATISFIABLE
benchmarks_SAT/INST_9x9/0/inst9x9_0_53.cnf : 8 ms.
--------------------------------------------------
s SATISFIABLE
benchmarks_SAT/INST_9x9/0/inst9x9_0_54.cnf : 8 ms.
--------------------------------------------------
s SATISFIABLE
benchmarks_SAT/INST_9x9/0/inst9x9_0_55.cnf : 7 ms.
--------------------------------------------------
s SATISFIABLE
benchmarks_SAT/INST_9x9/0/inst9x9_0_56.cnf : 8 ms.
--------------------------------------------------
s SATISFIABLE
benchmarks_SAT/INST_9x9/0/inst9x9_0_57.cnf : 8 ms.
--------------------------------------------------
s SATISFIABLE
benchmarks_SAT/INST_9x9/0/inst9x9_0_58.cnf : 7 ms.
--------------------------------------------------
s SATISFIABLE
benchmarks_SAT/INST_9x9/0/inst9x9_0_59.cnf : 8 ms.
--------------------------------------------------
s SATISFIABLE
benchmarks_SAT/INST_9x9/0/inst9x9_0_5.cnf : 8 ms.
--------------------------------------------------
s SATISFIABLE
benchmarks_SAT/INST_9x9/0/inst9x9_0_60.cnf : 7 ms.
--------------------------------------------------
s SATISFIABLE
benchmarks_SAT/INST_9x9/0/inst9x9_0_61.cnf : 8 ms.
--------------------------------------------------
s SATISFIABLE
benchmarks_SAT/INST_9x9/0/inst9x9_0_62.cnf : 8 ms.
--------------------------------------------------
s SATISFIABLE
benchmarks_SAT/INST_9x9/0/inst9x9_0_63.cnf : 7 ms.
--------------------------------------------------
s SATISFIABLE
benchmarks_SAT/INST_9x9/0/inst9x9_0_64.cnf : 8 ms.
--------------------------------------------------
s SATISFIABLE
benchmarks_SAT/INST_9x9/0/inst9x9_0_65.cnf : 8 ms.
--------------------------------------------------
s SATISFIABLE
benchmarks_SAT/INST_9x9/0/inst9x9_0_66.cnf : 8 ms.
--------------------------------------------------
s SATISFIABLE
benchmarks_SAT/INST_9x9/0/inst9x9_0_67.cnf : 7 ms.
--------------------------------------------------
s SATISFIABLE
benchmarks_SAT/INST_9x9/0/inst9x9_0_68.cnf : 7 ms.
--------------------------------------------------
s SATISFIABLE
benchmarks_SAT/INST_9x9/0/inst9x9_0_69.cnf : 7 ms.
--------------------------------------------------
s SATISFIABLE
benchmarks_SAT/INST_9x9/0/inst9x9_0_6.cnf : 7 ms.
--------------------------------------------------
s SATISFIABLE
benchmarks_SAT/INST_9x9/0/inst9x9_0_70.cnf : 8 ms.
--------------------------------------------------
s SATISFIABLE
benchmarks_SAT/INST_9x9/0/inst9x9_0_71.cnf : 8 ms.
--------------------------------------------------
s SATISFIABLE
benchmarks_SAT/INST_9x9/0/inst9x9_0_72.cnf : 9 ms.
--------------------------------------------------
s SATISFIABLE
benchmarks_SAT/INST_9x9/0/inst9x9_0_73.cnf : 9 ms.
--------------------------------------------------
s SATISFIABLE
benchmarks_SAT/INST_9x9/0/inst9x9_0_74.cnf : 7 ms.
--------------------------------------------------
s SATISFIABLE
benchmarks_SAT/INST_9x9/0/inst9x9_0_75.cnf : 7 ms.
--------------------------------------------------
s SATISFIABLE
benchmarks_SAT/INST_9x9/0/inst9x9_0_76.cnf : 8 ms.
--------------------------------------------------
s SATISFIABLE
benchmarks_SAT/INST_9x9/0/inst9x9_0_77.cnf : 8 ms.
--------------------------------------------------
s SATISFIABLE
benchmarks_SAT/INST_9x9/0/inst9x9_0_78.cnf : 8 ms.
--------------------------------------------------
s SATISFIABLE
benchmarks_SAT/INST_9x9/0/inst9x9_0_79.cnf : 8 ms.
--------------------------------------------------
s SATISFIABLE
benchmarks_SAT/INST_9x9/0/inst9x9_0_7.cnf : 8 ms.
--------------------------------------------------
s SATISFIABLE
benchmarks_SAT/INST_9x9/0/inst9x9_0_80.cnf : 9 ms.
--------------------------------------------------
s SATISFIABLE
benchmarks_SAT/INST_9x9/0/inst9x9_0_81.cnf : 8 ms.
--------------------------------------------------
s SATISFIABLE
benchmarks_SAT/INST_9x9/0/inst9x9_0_82.cnf : 9 ms.
--------------------------------------------------
s SATISFIABLE
benchmarks_SAT/INST_9x9/0/inst9x9_0_83.cnf : 9 ms.
--------------------------------------------------
s SATISFIABLE
benchmarks_SAT/INST_9x9/0/inst9x9_0_84.cnf : 9 ms.
--------------------------------------------------
s SATISFIABLE
benchmarks_SAT/INST_9x9/0/inst9x9_0_85.cnf : 8 ms.
--------------------------------------------------
s SATISFIABLE
benchmarks_SAT/INST_9x9/0/inst9x9_0_86.cnf : 8 ms.
--------------------------------------------------
s SATISFIABLE
benchmarks_SAT/INST_9x9/0/inst9x9_0_87.cnf : 10 ms.
--------------------------------------------------
s SATISFIABLE
benchmarks_SAT/INST_9x9/0/inst9x9_0_88.cnf : 8 ms.
--------------------------------------------------
s SATISFIABLE
benchmarks_SAT/INST_9x9/0/inst9x9_0_89.cnf : 7 ms.
--------------------------------------------------
s SATISFIABLE
benchmarks_SAT/INST_9x9/0/inst9x9_0_8.cnf : 8 ms.
--------------------------------------------------
s SATISFIABLE
benchmarks_SAT/INST_9x9/0/inst9x9_0_90.cnf : 9 ms.
--------------------------------------------------
s SATISFIABLE
benchmarks_SAT/INST_9x9/0/inst9x9_0_91.cnf : 9 ms.
--------------------------------------------------
s SATISFIABLE
benchmarks_SAT/INST_9x9/0/inst9x9_0_92.cnf : 8 ms.
--------------------------------------------------
s SATISFIABLE
benchmarks_SAT/INST_9x9/0/inst9x9_0_93.cnf : 7 ms.
--------------------------------------------------
s SATISFIABLE
benchmarks_SAT/INST_9x9/0/inst9x9_0_94.cnf : 8 ms.
--------------------------------------------------
s SATISFIABLE
benchmarks_SAT/INST_9x9/0/inst9x9_0_95.cnf : 9 ms.
--------------------------------------------------
s SATISFIABLE
benchmarks_SAT/INST_9x9/0/inst9x9_0_96.cnf : 7 ms.
--------------------------------------------------
s SATISFIABLE
benchmarks_SAT/INST_9x9/0/inst9x9_0_97.cnf : 8 ms.
--------------------------------------------------
s SATISFIABLE
benchmarks_SAT/INST_9x9/0/inst9x9_0_98.cnf : 8 ms.
--------------------------------------------------
s SATISFIABLE
benchmarks_SAT/INST_9x9/0/inst9x9_0_99.cnf : 8 ms.
--------------------------------------------------
s SATISFIABLE
benchmarks_SAT/INST_9x9/0/inst9x9_0_9.cnf : 8 ms.
